33D32945 STP File, STP Format Version 1.0

SECTION Comments
Name "shell_n10_d2_s44"
Problem "Euclidean Steiner Tree Problem"
Remark "Generated with STPGenerator. 2 dimensions."
END

SECTION Graph
Nodes 10
END

SECTION Coordinates
DD 0 0.8502446348 0.5263877478
DD 1 -0.2881318926 -0.9575907333
DD 2 -0.8167329765 0.5770158101
DD 3 -0.8490375364 0.5283325296
DD 4 0.2482546483 -0.9686948073
DD 5 -0.6220013874 0.7830161391
DD 6 -0.1221354978 -0.9925134358
DD 7 -0.9061114769 -0.4230389951
DD 8 0.8199267396 0.5724684635
DD 9 -0.9996718095 0.0256178302
END
